rcpsp/heur_output_or_constraints/Log=10/heurj90.txt
encoding rcpsp/j90.sm/j9035_5.sm nv: 513252 nc: 1232037 enctime: 20.71
encoding rcpsp/j90.sm/j9035_5.sm nv: 93492 nc: 220917 enctime: 1.14
c File: j9035_5.smnaiveor10.wcnf
c optimal
c final solution cost: 95
c CPU time: 4.193085
s OPTIMUM FOUND

c File: j9035_5.smor10.wcnf
c optimal
c final solution cost: 95
c CPU time: 0.257249
s OPTIMUM FOUND


rcpsp/heur_output_or_constraints/Log=10/heurj90.txt
encoding rcpsp/j90.sm/j9035_6.sm nv: 501228 nc: 1149261 enctime: 16.72
encoding rcpsp/j90.sm/j9035_6.sm nv: 77922 nc: 175617 enctime: 0.86
c File: j9035_6.smnaiveor10.wcnf
c optimal
c final solution cost: 72
c CPU time: 3.612747
s OPTIMUM FOUND

c File: j9035_6.smor10.wcnf
c optimal
c final solution cost: 72
c CPU time: 0.206184
s OPTIMUM FOUND


rcpsp/heur_output_or_constraints/Log=10/heurj90.txt
encoding rcpsp/j90.sm/j9035_7.sm nv: 434250 nc: 996625 enctime: 15.44
encoding rcpsp/j90.sm/j9035_7.sm nv: 78165 nc: 176707 enctime: 1.41
c File: j9035_7.smnaiveor10.wcnf
c optimal
c final solution cost: 78
c CPU time: 3.420002
s OPTIMUM FOUND

c File: j9035_7.smor10.wcnf
c optimal
c final solution cost: 78
c CPU time: 0.215608
s OPTIMUM FOUND


rcpsp/heur_output_or_constraints/Log=10/heurj90.txt
encoding rcpsp/j90.sm/j9035_8.sm nv: 493136 nc: 1130777 enctime: 16.12
encoding rcpsp/j90.sm/j9035_8.sm nv: 90132 nc: 203790 enctime: 1.55
c File: j9035_8.smnaiveor10.wcnf
c optimal
c final solution cost: 85
c CPU time: 3.461918
s OPTIMUM FOUND

c File: j9035_8.smor10.wcnf
c optimal
c final solution cost: 85
c CPU time: 0.231869
s OPTIMUM FOUND


rcpsp/heur_output_or_constraints/Log=10/heurj90.txt
encoding rcpsp/j90.sm/j9035_9.sm nv: 476844 nc: 1090792 enctime: 15.97
encoding rcpsp/j90.sm/j9035_9.sm nv: 69414 nc: 155647 enctime: 1.21
c File: j9035_9.smnaiveor10.wcnf
c optimal
c final solution cost: 67
c CPU time: 3.526585
s OPTIMUM FOUND

c File: j9035_9.smor10.wcnf
c optimal
c final solution cost: 67
c CPU time: 0.169780
s OPTIMUM FOUND


rcpsp/heur_output_or_constraints/Log=10/heurj90.txt
encoding rcpsp/j90.sm/j903_5.sm nv: 687659 nc: 1515112 enctime: 18.80
encoding rcpsp/j90.sm/j903_5.sm nv: 105378 nc: 229008 enctime: 1.12
c File: j903_5.smnaiveor10.wcnf
c optimal
c final solution cost: 75
c CPU time: 3.948261
s OPTIMUM FOUND

c File: j903_5.smor10.wcnf
c optimal
c final solution cost: 75
c CPU time: 0.270097
s OPTIMUM FOUND


rcpsp/heur_output_or_constraints/Log=10/heurj90.txt
encoding rcpsp/j90.sm/j9036_10.sm nv: 594868 nc: 1354397 enctime: 19.60
encoding rcpsp/j90.sm/j9036_10.sm nv: 121784 nc: 274101 enctime: 2.00
c File: j9036_10.smnaiveor10.wcnf
c optimal
c final solution cost: 103
c CPU time: 4.125451
s OPTIMUM FOUND

c File: j9036_10.smor10.wcnf
c optimal
c final solution cost: 103
c CPU time: 0.296305
s OPTIMUM FOUND


rcpsp/heur_output_or_constraints/Log=10/heurj90.txt
encoding rcpsp/j90.sm/j9036_1.sm nv: 493188 nc: 1099801 enctime: 14.22
encoding rcpsp/j90.sm/j9036_1.sm nv: 88954 nc: 195839 enctime: 1.38
c File: j9036_1.smnaiveor10.wcnf
c optimal
c final solution cost: 76
c CPU time: 3.007104
s OPTIMUM FOUND

c File: j9036_1.smor10.wcnf
c optimal
c final solution cost: 76
c CPU time: 0.209936
s OPTIMUM FOUND


rcpsp/heur_output_or_constraints/Log=10/heurj90.txt
encoding rcpsp/j90.sm/j9036_2.sm nv: 529830 nc: 1246930 enctime: 19.47
encoding rcpsp/j90.sm/j9036_2.sm nv: 116725 nc: 271351 enctime: 2.08
c File: j9036_2.smnaiveor10.wcnf
c optimal
c final solution cost: 114
c CPU time: 4.312228
s OPTIMUM FOUND

c File: j9036_2.smor10.wcnf
c optimal
c final solution cost: 114
c CPU time: 0.327988
s OPTIMUM FOUND


rcpsp/heur_output_or_constraints/Log=10/heurj90.txt
encoding rcpsp/j90.sm/j9036_3.sm nv: 656370 nc: 1474437 enctime: 21.27
encoding rcpsp/j90.sm/j9036_3.sm nv: 101673 nc: 224968 enctime: 1.62
c File: j9036_3.smnaiveor10.wcnf
c optimal
c final solution cost: 77
c CPU time: 4.063444
s OPTIMUM FOUND

c File: j9036_3.smor10.wcnf
c optimal
c final solution cost: 77
c CPU time: 0.231103
s OPTIMUM FOUND


rcpsp/heur_output_or_constraints/Log=10/heurj90.txt
encoding rcpsp/j90.sm/j9036_4.sm nv: 548948 nc: 1226201 enctime: 16.36
encoding rcpsp/j90.sm/j9036_4.sm nv: 75392 nc: 165323 enctime: 1.23
c File: j9036_4.smnaiveor10.wcnf
c optimal
c final solution cost: 63
c CPU time: 3.412147
s OPTIMUM FOUND

c File: j9036_4.smor10.wcnf
c optimal
c final solution cost: 63
c CPU time: 0.149579
s OPTIMUM FOUND


rcpsp/heur_output_or_constraints/Log=10/heurj90.txt
encoding rcpsp/j90.sm/j9036_5.sm nv: 590336 nc: 1349221 enctime: 18.99
encoding rcpsp/j90.sm/j9036_5.sm nv: 102617 nc: 231232 enctime: 1.69
c File: j9036_5.smnaiveor10.wcnf
c optimal
c final solution cost: 85
c CPU time: 3.948189
s OPTIMUM FOUND

c File: j9036_5.smor10.wcnf
c optimal
c final solution cost: 85
c CPU time: 0.249436
s OPTIMUM FOUND


rcpsp/heur_output_or_constraints/Log=10/heurj90.txt
encoding rcpsp/j90.sm/j9036_6.sm nv: 623570 nc: 1385214 enctime: 18.53
encoding rcpsp/j90.sm/j9036_6.sm nv: 127000 nc: 279075 enctime: 1.46
c File: j9036_6.smnaiveor10.wcnf
c optimal
c final solution cost: 99
c CPU time: 3.983925
s OPTIMUM FOUND

c File: j9036_6.smor10.wcnf
c optimal
c final solution cost: 99
c CPU time: 0.297575
s OPTIMUM FOUND


rcpsp/heur_output_or_constraints/Log=10/heurj90.txt
encoding rcpsp/j90.sm/j9036_7.sm nv: 571206 nc: 1302749 enctime: 18.54
encoding rcpsp/j90.sm/j9036_7.sm nv: 91760 nc: 205917 enctime: 1.54
c File: j9036_7.smnaiveor10.wcnf
c optimal
c final solution cost: 75
c CPU time: 3.937217
s OPTIMUM FOUND

c File: j9036_7.smor10.wcnf
c optimal
c final solution cost: 75
c CPU time: 0.209326
s OPTIMUM FOUND


rcpsp/heur_output_or_constraints/Log=10/heurj90.txt
encoding rcpsp/j90.sm/j9036_8.sm nv: 606528 nc: 1345712 enctime: 17.69
encoding rcpsp/j90.sm/j9036_8.sm nv: 94608 nc: 206927 enctime: 1.60
c File: j9036_8.smnaiveor10.wcnf
c optimal
c final solution cost: 72
c CPU time: 3.833003
s OPTIMUM FOUND

c File: j9036_8.smor10.wcnf
c optimal
c final solution cost: 72
c CPU time: 0.212349
s OPTIMUM FOUND


rcpsp/heur_output_or_constraints/Log=10/heurj90.txt
encoding rcpsp/j90.sm/j9036_9.sm nv: 633920 nc: 1476017 enctime: 22.77
encoding rcpsp/j90.sm/j9036_9.sm nv: 116596 nc: 267709 enctime: 1.38
c File: j9036_9.smnaiveor10.wcnf
c optimal
c final solution cost: 102
c CPU time: 4.634391
s OPTIMUM FOUND

c File: j9036_9.smor10.wcnf
c optimal
c final solution cost: 102
c CPU time: 0.275899
s OPTIMUM FOUND


rcpsp/heur_output_or_constraints/Log=10/heurj90.txt
encoding rcpsp/j90.sm/j903_6.sm nv: 502320 nc: 1114287 enctime: 13.54
encoding rcpsp/j90.sm/j903_6.sm nv: 75348 nc: 164548 enctime: 0.78
c File: j903_6.smnaiveor10.wcnf
c optimal
c final solution cost: 68
c CPU time: 2.862567
s OPTIMUM FOUND

c File: j903_6.smor10.wcnf
c optimal
c final solution cost: 68
c CPU time: 0.210797
s OPTIMUM FOUND


rcpsp/heur_output_or_constraints/Log=10/heurj90.txt
encoding rcpsp/j90.sm/j9037_10.sm nv: 902272 nc: 2003496 enctime: 24.72
encoding rcpsp/j90.sm/j9037_10.sm nv: 244224 nc: 539184 enctime: 3.54
c File: j9037_10.smnaiveor10.wcnf
c timeout
c final solution cost: 123
c CPU time: 64.147564
s UNKNOWN

c File: j9037_10.smor10.wcnf
c timeout
c final solution cost: 122
c CPU time: 60.534413
s UNKNOWN


rcpsp/heur_output_or_constraints/Log=10/heurj90.txt
encoding rcpsp/j90.sm/j9037_1.sm nv: 980720 nc: 2145480 enctime: 25.09
encoding rcpsp/j90.sm/j9037_1.sm nv: 239522 nc: 520818 enctime: 3.36
c File: j9037_1.smnaiveor10.wcnf
c timeout
c final solution cost: 110
c CPU time: 64.432992
s UNKNOWN

c File: j9037_1.smor10.wcnf
c timeout
c final solution cost: 105
c CPU time: 60.527071
s UNKNOWN


rcpsp/heur_output_or_constraints/Log=10/heurj90.txt
encoding rcpsp/j90.sm/j9037_2.sm nv: 890500 nc: 1948491 enctime: 22.52
encoding rcpsp/j90.sm/j9037_2.sm nv: 238654 nc: 519261 enctime: 3.33
c File: j9037_2.smnaiveor10.wcnf
c timeout
c final solution cost: 114
c CPU time: 63.801709
s UNKNOWN

c File: j9037_2.smor10.wcnf
c timeout
c final solution cost: 117
c CPU time: 60.507704
s UNKNOWN


rcpsp/heur_output_or_constraints/Log=10/heurj90.txt
encoding rcpsp/j90.sm/j9037_3.sm nv: 779475 nc: 1713422 enctime: 19.62
encoding rcpsp/j90.sm/j9037_3.sm nv: 247791 nc: 542162 enctime: 3.51
c File: j9037_3.smnaiveor10.wcnf
c optimal
c final solution cost: 125
c CPU time: 35.929992
s OPTIMUM FOUND

c File: j9037_3.smor10.wcnf
c timeout
c final solution cost: 126
c CPU time: 60.547823
s UNKNOWN


rcpsp/heur_output_or_constraints/Log=10/heurj90.txt
encoding rcpsp/j90.sm/j9037_4.sm nv: 845894 nc: 1877213 enctime: 22.64
encoding rcpsp/j90.sm/j9037_4.sm nv: 248216 nc: 547901 enctime: 4.33
c File: j9037_4.smnaiveor10.wcnf
c timeout
c final solution cost: 131
c CPU time: 64.033210
s UNKNOWN

c File: j9037_4.smor10.wcnf
c timeout
c final solution cost: 125
c CPU time: 60.558470
s UNKNOWN


rcpsp/heur_output_or_constraints/Log=10/heurj90.txt
encoding rcpsp/j90.sm/j9037_5.sm nv: 771210 nc: 1712795 enctime: 21.44
encoding rcpsp/j90.sm/j9037_5.sm nv: 229026 nc: 505931 enctime: 3.38
c File: j9037_5.smnaiveor10.wcnf
c timeout
c final solution cost: 127
c CPU time: 63.896328
s UNKNOWN

c File: j9037_5.smor10.wcnf
c timeout
c final solution cost: 126
c CPU time: 60.517048
s UNKNOWN


rcpsp/heur_output_or_constraints/Log=10/heurj90.txt
encoding rcpsp/j90.sm/j9037_6.sm nv: 952590 nc: 2131509 enctime: 26.74
encoding rcpsp/j90.sm/j9037_6.sm nv: 276285 nc: 614910 enctime: 4.13
c File: j9037_6.smnaiveor10.wcnf
c timeout
c final solution cost: 202
c CPU time: 64.825697
s UNKNOWN

c File: j9037_6.smor10.wcnf
c timeout
c final solution cost: 131
c CPU time: 60.669329
s UNKNOWN


rcpsp/heur_output_or_constraints/Log=10/heurj90.txt
encoding rcpsp/j90.sm/j9037_7.sm nv: 793638 nc: 1747322 enctime: 20.61
encoding rcpsp/j90.sm/j9037_7.sm nv: 222088 nc: 486272 enctime: 3.18
c File: j9037_7.smnaiveor10.wcnf
c timeout
c final solution cost: 121
c CPU time: 63.555251
s UNKNOWN

c File: j9037_7.smor10.wcnf
c timeout
c final solution cost: 124
c CPU time: 60.483682
s UNKNOWN


rcpsp/heur_output_or_constraints/Log=10/heurj90.txt
encoding rcpsp/j90.sm/j9037_8.sm nv: 893944 nc: 1978630 enctime: 23.87
encoding rcpsp/j90.sm/j9037_8.sm nv: 240546 nc: 529358 enctime: 3.60
c File: j9037_8.smnaiveor10.wcnf
c timeout
c final solution cost: 118
c CPU time: 64.044112
s UNKNOWN

c File: j9037_8.smor10.wcnf
c timeout
c final solution cost: 120
c CPU time: 60.533292
s UNKNOWN


rcpsp/heur_output_or_constraints/Log=10/heurj90.txt
encoding rcpsp/j90.sm/j9037_9.sm nv: 754929 nc: 1665548 enctime: 19.90
encoding rcpsp/j90.sm/j9037_9.sm nv: 225072 nc: 493964 enctime: 3.27
c File: j9037_9.smnaiveor10.wcnf
c timeout
c final solution cost: 124
c CPU time: 64.042145
s UNKNOWN

c File: j9037_9.smor10.wcnf
c timeout
c final solution cost: 122
c CPU time: 60.502334
s UNKNOWN


rcpsp/heur_output_or_constraints/Log=10/heurj90.txt
encoding rcpsp/j90.sm/j903_7.sm nv: 428230 nc: 966263 enctime: 12.41
encoding rcpsp/j90.sm/j903_7.sm nv: 81345 nc: 180856 enctime: 0.92
c File: j903_7.smnaiveor10.wcnf
c optimal
c final solution cost: 86
c CPU time: 2.922363
s OPTIMUM FOUND

c File: j903_7.smor10.wcnf
c optimal
c final solution cost: 86
c CPU time: 0.219840
s OPTIMUM FOUND


rcpsp/heur_output_or_constraints/Log=10/heurj90.txt
encoding rcpsp/j90.sm/j9038_10.sm nv: 1237021 nc: 2627904 enctime: 28.28
encoding rcpsp/j90.sm/j9038_10.sm nv: 252858 nc: 534126 enctime: 3.42
c File: j9038_10.smnaiveor10.wcnf
c optimal
c final solution cost: 93
c CPU time: 6.050406
s OPTIMUM FOUND

c File: j9038_10.smor10.wcnf
c optimal
c final solution cost: 93
c CPU time: 1.107456
s OPTIMUM FOUND


rcpsp/heur_output_or_constraints/Log=10/heurj90.txt
encoding rcpsp/j90.sm/j9038_1.sm nv: 1357056 nc: 2861456 enctime: 29.36
encoding rcpsp/j90.sm/j9038_1.sm nv: 232560 nc: 487109 enctime: 3.18
c File: j9038_1.smnaiveor10.wcnf
c optimal
c final solution cost: 76
c CPU time: 12.705186
s OPTIMUM FOUND

c File: j9038_1.smor10.wcnf
c optimal
c final solution cost: 76
c CPU time: 0.655552
s OPTIMUM FOUND


rcpsp/heur_output_or_constraints/Log=10/heurj90.txt
encoding rcpsp/j90.sm/j9038_2.sm nv: 1358970 nc: 2845231 enctime: 27.62
encoding rcpsp/j90.sm/j9038_2.sm nv: 229890 nc: 478431 enctime: 3.01
c File: j9038_2.smnaiveor10.wcnf
c optimal
c final solution cost: 73
c CPU time: 5.827542
s OPTIMUM FOUND

c File: j9038_2.smor10.wcnf
c optimal
c final solution cost: 73
c CPU time: 0.479971
s OPTIMUM FOUND


rcpsp/heur_output_or_constraints/Log=10/heurj90.txt
encoding rcpsp/j90.sm/j9038_3.sm nv: 1394540 nc: 2934339 enctime: 29.07
encoding rcpsp/j90.sm/j9038_3.sm nv: 273216 nc: 571915 enctime: 3.62
c File: j9038_3.smnaiveor10.wcnf
c optimal
c final solution cost: 88
c CPU time: 6.592637
s OPTIMUM FOUND

c File: j9038_3.smor10.wcnf
c optimal
c final solution cost: 88
c CPU time: 0.816662
s OPTIMUM FOUND


rcpsp/heur_output_or_constraints/Log=10/heurj90.txt
encoding rcpsp/j90.sm/j9038_4.sm nv: 1354197 nc: 2867569 enctime: 29.42
encoding rcpsp/j90.sm/j9038_4.sm nv: 251074 nc: 528337 enctime: 3.34
c File: j9038_4.smnaiveor10.wcnf
c optimal
c final solution cost: 89
c CPU time: 8.297499
s OPTIMUM FOUND

c File: j9038_4.smor10.wcnf
c optimal
c final solution cost: 89
c CPU time: 0.698755
s OPTIMUM FOUND


rcpsp/heur_output_or_constraints/Log=10/heurj90.txt
encoding rcpsp/j90.sm/j9038_5.sm nv: 1308918 nc: 2786626 enctime: 29.22
encoding rcpsp/j90.sm/j9038_5.sm nv: 239590 nc: 506778 enctime: 3.23
c File: j9038_5.smnaiveor10.wcnf
c optimal
c final solution cost: 84
c CPU time: 7.316061
s OPTIMUM FOUND

c File: j9038_5.smor10.wcnf
c optimal
c final solution cost: 84
c CPU time: 1.288795
s OPTIMUM FOUND


rcpsp/heur_output_or_constraints/Log=10/heurj90.txt
encoding rcpsp/j90.sm/j9038_6.sm nv: 1362843 nc: 2867096 enctime: 28.30
encoding rcpsp/j90.sm/j9038_6.sm nv: 239682 nc: 501083 enctime: 3.15
c File: j9038_6.smnaiveor10.wcnf
c optimal
c final solution cost: 79
c CPU time: 6.945218
s OPTIMUM FOUND

c File: j9038_6.smor10.wcnf
c optimal
c final solution cost: 79
c CPU time: 0.631419
s OPTIMUM FOUND


rcpsp/heur_output_or_constraints/Log=10/heurj90.txt
encoding rcpsp/j90.sm/j9038_7.sm nv: 1380954 nc: 2908904 enctime: 28.98
encoding rcpsp/j90.sm/j9038_7.sm nv: 244024 nc: 510814 enctime: 3.22
c File: j9038_7.smnaiveor10.wcnf
c optimal
c final solution cost: 84
c CPU time: 6.501509
s OPTIMUM FOUND

c File: j9038_7.smor10.wcnf
c optimal
c final solution cost: 84
c CPU time: 0.629712
s OPTIMUM FOUND


rcpsp/heur_output_or_constraints/Log=10/heurj90.txt
encoding rcpsp/j90.sm/j9038_8.sm nv: 1574720 nc: 3323379 enctime: 36.46
encoding rcpsp/j90.sm/j9038_8.sm nv: 281200 nc: 589944 enctime: 3.75
c File: j9038_8.smnaiveor10.wcnf
c optimal
c final solution cost: 82
c CPU time: 15.177805
s OPTIMUM FOUND

c File: j9038_8.smor10.wcnf
c optimal
c final solution cost: 82
c CPU time: 4.012447
s OPTIMUM FOUND


rcpsp/heur_output_or_constraints/Log=10/heurj90.txt
encoding rcpsp/j90.sm/j9038_9.sm nv: 1376331 nc: 2939408 enctime: 31.19
encoding rcpsp/j90.sm/j9038_9.sm nv: 269115 nc: 571184 enctime: 3.60
c File: j9038_9.smnaiveor10.wcnf
c optimal
c final solution cost: 95
c CPU time: 6.128791
s OPTIMUM FOUND

c File: j9038_9.smor10.wcnf
c optimal
c final solution cost: 95
c CPU time: 0.807084
s OPTIMUM FOUND


rcpsp/heur_output_or_constraints/Log=10/heurj90.txt
encoding rcpsp/j90.sm/j903_8.sm nv: 501486 nc: 1139775 enctime: 14.56
encoding rcpsp/j90.sm/j903_8.sm nv: 74518 nc: 166271 enctime: 1.20
c File: j903_8.smnaiveor10.wcnf
c optimal
c final solution cost: 68
c CPU time: 3.066915
s OPTIMUM FOUND

c File: j903_8.smor10.wcnf
c optimal
c final solution cost: 68
c CPU time: 0.170288
s OPTIMUM FOUND


rcpsp/heur_output_or_constraints/Log=10/heurj90.txt
encoding rcpsp/j90.sm/j9039_10.sm nv: 1652510 nc: 3457668 enctime: 33.35
encoding rcpsp/j90.sm/j9039_10.sm nv: 302210 nc: 628968 enctime: 3.86
c File: j9039_10.smnaiveor10.wcnf
c optimal
c final solution cost: 90
c CPU time: 6.323705
s OPTIMUM FOUND

c File: j9039_10.smor10.wcnf
c optimal
c final solution cost: 90
c CPU time: 0.800766
s OPTIMUM FOUND


